
Gurobi 8.1.1 (linux64, Python) logging started Fri Jul 31 12:37:16 2020


Gurobi 8.1.1 (linux64) logging started Fri Jul 31 12:37:17 2020


ERROR 10009: License expired 2020-07-25 - license file '/ip29/jacques_group/Gurobi_solver/licence_server/gurobi.lic'


Gurobi 8.1.1 (linux64, Python) logging started Fri Jul 31 12:39:49 2020

